\ENCODING=ISO-8859-1
\Problem name: IloCplex

Minimize
 obj1: 99999999 X(0,0) + 153 X(0,1) + 510 X(0,2) + 706 X(0,3) + 966 X(0,4)
       + 581 X(0,5) + 455 X(0,6) + 70 X(0,7) + 160 X(0,8) + 372 X(0,9)
       + 157 X(0,10) + 567 X(0,11) + 342 X(0,12) + 398 X(0,13) + 153 X(1,0)
       + 99999999 X(1,1) + 422 X(1,2) + 664 X(1,3) + 997 X(1,4) + 598 X(1,5)
       + 507 X(1,6) + 197 X(1,7) + 311 X(1,8) + 479 X(1,9) + 310 X(1,10)
       + 581 X(1,11) + 417 X(1,12) + 376 X(1,13) + 510 X(2,0) + 422 X(2,1)
       + 99999999 X(2,2) + 289 X(2,3) + 744 X(2,4) + 390 X(2,5) + 437 X(2,6)
       + 491 X(2,7) + 645 X(2,8) + 880 X(2,9) + 618 X(2,10) + 374 X(2,11)
       + 455 X(2,12) + 211 X(2,13) + 706 X(3,0) + 664 X(3,1) + 289 X(3,2)
       + 99999999 X(3,3) + 491 X(3,4) + 265 X(3,5) + 410 X(3,6) + 664 X(3,7)
       + 804 X(3,8) + 1070 X(3,9) + 768 X(3,10) + 259 X(3,11) + 499 X(3,12)
       + 310 X(3,13) + 966 X(4,0) + 997 X(4,1) + 744 X(4,2) + 491 X(4,3)
       + 99999999 X(4,4) + 400 X(4,5) + 514 X(4,6) + 902 X(4,7) + 990 X(4,8)
       + 1261 X(4,9) + 947 X(4,10) + 418 X(4,11) + 635 X(4,12) + 636 X(4,13)
       + 581 X(5,0) + 598 X(5,1) + 390 X(5,2) + 265 X(5,3) + 400 X(5,4)
       + 99999999 X(5,5) + 168 X(5,6) + 522 X(5,7) + 634 X(5,8) + 910 X(5,9)
       + 593 X(5,10) + 19 X(5,11) + 284 X(5,12) + 239 X(5,13) + 455 X(6,0)
       + 507 X(6,1) + 437 X(6,2) + 410 X(6,3) + 514 X(6,4) + 168 X(6,5)
       + 99999999 X(6,6) + 389 X(6,7) + 482 X(6,8) + 757 X(6,9) + 439 X(6,10)
       + 163 X(6,11) + 124 X(6,12) + 232 X(6,13) + 70 X(7,0) + 197 X(7,1)
       + 491 X(7,2) + 664 X(7,3) + 902 X(7,4) + 522 X(7,5) + 389 X(7,6)
       + 99999999 X(7,7) + 154 X(7,8) + 406 X(7,9) + 133 X(7,10) + 508 X(7,11)
       + 273 X(7,12) + 355 X(7,13) + 160 X(8,0) + 311 X(8,1) + 645 X(8,2)
       + 804 X(8,3) + 990 X(8,4) + 634 X(8,5) + 482 X(8,6) + 154 X(8,7)
       + 99999999 X(8,8) + 276 X(8,9) + 43 X(8,10) + 623 X(8,11) + 358 X(8,12)
       + 498 X(8,13) + 372 X(9,0) + 479 X(9,1) + 880 X(9,2) + 1070 X(9,3)
       + 1261 X(9,4) + 910 X(9,5) + 757 X(9,6) + 406 X(9,7) + 276 X(9,8)
       + 99999999 X(9,9) + 318 X(9,10) + 898 X(9,11) + 633 X(9,12)
       + 761 X(9,13) + 157 X(10,0) + 310 X(10,1) + 618 X(10,2) + 768 X(10,3)
       + 947 X(10,4) + 593 X(10,5) + 439 X(10,6) + 133 X(10,7) + 43 X(10,8)
       + 318 X(10,9) + 99999999 X(10,10) + 582 X(10,11) + 315 X(10,12)
       + 464 X(10,13) + 567 X(11,0) + 581 X(11,1) + 374 X(11,2) + 259 X(11,3)
       + 418 X(11,4) + 19 X(11,5) + 163 X(11,6) + 508 X(11,7) + 623 X(11,8)
       + 898 X(11,9) + 582 X(11,10) + 99999999 X(11,11) + 275 X(11,12)
       + 221 X(11,13) + 342 X(12,0) + 417 X(12,1) + 455 X(12,2) + 499 X(12,3)
       + 635 X(12,4) + 284 X(12,5) + 124 X(12,6) + 273 X(12,7) + 358 X(12,8)
       + 633 X(12,9) + 315 X(12,10) + 275 X(12,11) + 99999999 X(12,12)
       + 247 X(12,13) + 398 X(13,0) + 376 X(13,1) + 211 X(13,2) + 310 X(13,3)
       + 636 X(13,4) + 239 X(13,5) + 232 X(13,6) + 355 X(13,7) + 498 X(13,8)
       + 761 X(13,9) + 464 X(13,10) + 221 X(13,11) + 247 X(13,12)
       + 99999999 X(13,13)
Subject To
 c1:  X(0,0) + X(0,1) + X(0,2) + X(0,3) + X(0,4) + X(0,5) + X(0,6) + X(0,7)
      + X(0,8) + X(0,9) + X(0,10) + X(0,11) + X(0,12) + X(0,13)  = 1
 c2:  X(0,0) + X(1,0) + X(2,0) + X(3,0) + X(4,0) + X(5,0) + X(6,0) + X(7,0)
      + X(8,0) + X(9,0) + X(10,0) + X(11,0) + X(12,0) + X(13,0)  = 1
 c3:  X(1,0) + X(1,1) + X(1,2) + X(1,3) + X(1,4) + X(1,5) + X(1,6) + X(1,7)
      + X(1,8) + X(1,9) + X(1,10) + X(1,11) + X(1,12) + X(1,13)  = 1
 c4:  X(0,1) + X(1,1) + X(2,1) + X(3,1) + X(4,1) + X(5,1) + X(6,1) + X(7,1)
      + X(8,1) + X(9,1) + X(10,1) + X(11,1) + X(12,1) + X(13,1)  = 1
 c5:  X(2,0) + X(2,1) + X(2,2) + X(2,3) + X(2,4) + X(2,5) + X(2,6) + X(2,7)
      + X(2,8) + X(2,9) + X(2,10) + X(2,11) + X(2,12) + X(2,13)  = 1
 c6:  X(0,2) + X(1,2) + X(2,2) + X(3,2) + X(4,2) + X(5,2) + X(6,2) + X(7,2)
      + X(8,2) + X(9,2) + X(10,2) + X(11,2) + X(12,2) + X(13,2)  = 1
 c7:  X(3,0) + X(3,1) + X(3,2) + X(3,3) + X(3,4) + X(3,5) + X(3,6) + X(3,7)
      + X(3,8) + X(3,9) + X(3,10) + X(3,11) + X(3,12) + X(3,13)  = 1
 c8:  X(0,3) + X(1,3) + X(2,3) + X(3,3) + X(4,3) + X(5,3) + X(6,3) + X(7,3)
      + X(8,3) + X(9,3) + X(10,3) + X(11,3) + X(12,3) + X(13,3)  = 1
 c9:  X(4,0) + X(4,1) + X(4,2) + X(4,3) + X(4,4) + X(4,5) + X(4,6) + X(4,7)
      + X(4,8) + X(4,9) + X(4,10) + X(4,11) + X(4,12) + X(4,13)  = 1
 c10: X(0,4) + X(1,4) + X(2,4) + X(3,4) + X(4,4) + X(5,4) + X(6,4) + X(7,4)
      + X(8,4) + X(9,4) + X(10,4) + X(11,4) + X(12,4) + X(13,4)  = 1
 c11: X(5,0) + X(5,1) + X(5,2) + X(5,3) + X(5,4) + X(5,5) + X(5,6) + X(5,7)
      + X(5,8) + X(5,9) + X(5,10) + X(5,11) + X(5,12) + X(5,13)  = 1
 c12: X(0,5) + X(1,5) + X(2,5) + X(3,5) + X(4,5) + X(5,5) + X(6,5) + X(7,5)
      + X(8,5) + X(9,5) + X(10,5) + X(11,5) + X(12,5) + X(13,5)  = 1
 c13: X(6,0) + X(6,1) + X(6,2) + X(6,3) + X(6,4) + X(6,5) + X(6,6) + X(6,7)
      + X(6,8) + X(6,9) + X(6,10) + X(6,11) + X(6,12) + X(6,13)  = 1
 c14: X(0,6) + X(1,6) + X(2,6) + X(3,6) + X(4,6) + X(5,6) + X(6,6) + X(7,6)
      + X(8,6) + X(9,6) + X(10,6) + X(11,6) + X(12,6) + X(13,6)  = 1
 c15: X(7,0) + X(7,1) + X(7,2) + X(7,3) + X(7,4) + X(7,5) + X(7,6) + X(7,7)
      + X(7,8) + X(7,9) + X(7,10) + X(7,11) + X(7,12) + X(7,13)  = 1
 c16: X(0,7) + X(1,7) + X(2,7) + X(3,7) + X(4,7) + X(5,7) + X(6,7) + X(7,7)
      + X(8,7) + X(9,7) + X(10,7) + X(11,7) + X(12,7) + X(13,7)  = 1
 c17: X(8,0) + X(8,1) + X(8,2) + X(8,3) + X(8,4) + X(8,5) + X(8,6) + X(8,7)
      + X(8,8) + X(8,9) + X(8,10) + X(8,11) + X(8,12) + X(8,13)  = 1
 c18: X(0,8) + X(1,8) + X(2,8) + X(3,8) + X(4,8) + X(5,8) + X(6,8) + X(7,8)
      + X(8,8) + X(9,8) + X(10,8) + X(11,8) + X(12,8) + X(13,8)  = 1
 c19: X(9,0) + X(9,1) + X(9,2) + X(9,3) + X(9,4) + X(9,5) + X(9,6) + X(9,7)
      + X(9,8) + X(9,9) + X(9,10) + X(9,11) + X(9,12) + X(9,13)  = 1
 c20: X(0,9) + X(1,9) + X(2,9) + X(3,9) + X(4,9) + X(5,9) + X(6,9) + X(7,9)
      + X(8,9) + X(9,9) + X(10,9) + X(11,9) + X(12,9) + X(13,9)  = 1
 c21: X(10,0) + X(10,1) + X(10,2) + X(10,3) + X(10,4) + X(10,5) + X(10,6)
      + X(10,7) + X(10,8) + X(10,9) + X(10,10) + X(10,11) + X(10,12) + X(10,13)
       = 1
 c22: X(0,10) + X(1,10) + X(2,10) + X(3,10) + X(4,10) + X(5,10) + X(6,10)
      + X(7,10) + X(8,10) + X(9,10) + X(10,10) + X(11,10) + X(12,10) + X(13,10)
       = 1
 c23: X(11,0) + X(11,1) + X(11,2) + X(11,3) + X(11,4) + X(11,5) + X(11,6)
      + X(11,7) + X(11,8) + X(11,9) + X(11,10) + X(11,11) + X(11,12) + X(11,13)
       = 1
 c24: X(0,11) + X(1,11) + X(2,11) + X(3,11) + X(4,11) + X(5,11) + X(6,11)
      + X(7,11) + X(8,11) + X(9,11) + X(10,11) + X(11,11) + X(12,11) + X(13,11)
       = 1
 c25: X(12,0) + X(12,1) + X(12,2) + X(12,3) + X(12,4) + X(12,5) + X(12,6)
      + X(12,7) + X(12,8) + X(12,9) + X(12,10) + X(12,11) + X(12,12) + X(12,13)
       = 1
 c26: X(0,12) + X(1,12) + X(2,12) + X(3,12) + X(4,12) + X(5,12) + X(6,12)
      + X(7,12) + X(8,12) + X(9,12) + X(10,12) + X(11,12) + X(12,12) + X(13,12)
       = 1
 c27: X(13,0) + X(13,1) + X(13,2) + X(13,3) + X(13,4) + X(13,5) + X(13,6)
      + X(13,7) + X(13,8) + X(13,9) + X(13,10) + X(13,11) + X(13,12) + X(13,13)
       = 1
 c28: X(0,13) + X(1,13) + X(2,13) + X(3,13) + X(4,13) + X(5,13) + X(6,13)
      + X(7,13) + X(8,13) + X(9,13) + X(10,13) + X(11,13) + X(12,13) + X(13,13)
       = 1
Bounds
 0 <= X(0,0) <= 1
 0 <= X(0,1) <= 1
 0 <= X(0,2) <= 1
 0 <= X(0,3) <= 1
 0 <= X(0,4) <= 1
 0 <= X(0,5) <= 1
 0 <= X(0,6) <= 1
 0 <= X(0,7) <= 1
 0 <= X(0,8) <= 1
 0 <= X(0,9) <= 1
 0 <= X(0,10) <= 1
 0 <= X(0,11) <= 1
 0 <= X(0,12) <= 1
 0 <= X(0,13) <= 1
 0 <= X(1,0) <= 1
 0 <= X(1,1) <= 1
 0 <= X(1,2) <= 1
 0 <= X(1,3) <= 1
 0 <= X(1,4) <= 1
 0 <= X(1,5) <= 1
 0 <= X(1,6) <= 1
 0 <= X(1,7) <= 1
 0 <= X(1,8) <= 1
 0 <= X(1,9) <= 1
 0 <= X(1,10) <= 1
 0 <= X(1,11) <= 1
 0 <= X(1,12) <= 1
 0 <= X(1,13) <= 1
 0 <= X(2,0) <= 1
 0 <= X(2,1) <= 1
 0 <= X(2,2) <= 1
 0 <= X(2,3) <= 1
 0 <= X(2,4) <= 1
 0 <= X(2,5) <= 1
 0 <= X(2,6) <= 1
 0 <= X(2,7) <= 1
 0 <= X(2,8) <= 1
 0 <= X(2,9) <= 1
 0 <= X(2,10) <= 1
 0 <= X(2,11) <= 1
 0 <= X(2,12) <= 1
 0 <= X(2,13) <= 1
 0 <= X(3,0) <= 1
 0 <= X(3,1) <= 1
 0 <= X(3,2) <= 1
 0 <= X(3,3) <= 1
 0 <= X(3,4) <= 1
 0 <= X(3,5) <= 1
 0 <= X(3,6) <= 1
 0 <= X(3,7) <= 1
 0 <= X(3,8) <= 1
 0 <= X(3,9) <= 1
 0 <= X(3,10) <= 1
 0 <= X(3,11) <= 1
 0 <= X(3,12) <= 1
 0 <= X(3,13) <= 1
 0 <= X(4,0) <= 1
 0 <= X(4,1) <= 1
 0 <= X(4,2) <= 1
 0 <= X(4,3) <= 1
 0 <= X(4,4) <= 1
 0 <= X(4,5) <= 1
 0 <= X(4,6) <= 1
 0 <= X(4,7) <= 1
 0 <= X(4,8) <= 1
 0 <= X(4,9) <= 1
 0 <= X(4,10) <= 1
 0 <= X(4,11) <= 1
 0 <= X(4,12) <= 1
 0 <= X(4,13) <= 1
 0 <= X(5,0) <= 1
 0 <= X(5,1) <= 1
 0 <= X(5,2) <= 1
 0 <= X(5,3) <= 1
 0 <= X(5,4) <= 1
 0 <= X(5,5) <= 1
 0 <= X(5,6) <= 1
 0 <= X(5,7) <= 1
 0 <= X(5,8) <= 1
 0 <= X(5,9) <= 1
 0 <= X(5,10) <= 1
 0 <= X(5,11) <= 1
 0 <= X(5,12) <= 1
 0 <= X(5,13) <= 1
 0 <= X(6,0) <= 1
 0 <= X(6,1) <= 1
 0 <= X(6,2) <= 1
 0 <= X(6,3) <= 1
 0 <= X(6,4) <= 1
 0 <= X(6,5) <= 1
 0 <= X(6,6) <= 1
 0 <= X(6,7) <= 1
 0 <= X(6,8) <= 1
 0 <= X(6,9) <= 1
 0 <= X(6,10) <= 1
 0 <= X(6,11) <= 1
 0 <= X(6,12) <= 1
 0 <= X(6,13) <= 1
 0 <= X(7,0) <= 1
 0 <= X(7,1) <= 1
 0 <= X(7,2) <= 1
 0 <= X(7,3) <= 1
 0 <= X(7,4) <= 1
 0 <= X(7,5) <= 1
 0 <= X(7,6) <= 1
 0 <= X(7,7) <= 1
 0 <= X(7,8) <= 1
 0 <= X(7,9) <= 1
 0 <= X(7,10) <= 1
 0 <= X(7,11) <= 1
 0 <= X(7,12) <= 1
 0 <= X(7,13) <= 1
 0 <= X(8,0) <= 1
 0 <= X(8,1) <= 1
 0 <= X(8,2) <= 1
 0 <= X(8,3) <= 1
 0 <= X(8,4) <= 1
 0 <= X(8,5) <= 1
 0 <= X(8,6) <= 1
 0 <= X(8,7) <= 1
 0 <= X(8,8) <= 1
 0 <= X(8,9) <= 1
 0 <= X(8,10) <= 1
 0 <= X(8,11) <= 1
 0 <= X(8,12) <= 1
 0 <= X(8,13) <= 1
 0 <= X(9,0) <= 1
 0 <= X(9,1) <= 1
 0 <= X(9,2) <= 1
 0 <= X(9,3) <= 1
 0 <= X(9,4) <= 1
 0 <= X(9,5) <= 1
 0 <= X(9,6) <= 1
 0 <= X(9,7) <= 1
 0 <= X(9,8) <= 1
 0 <= X(9,9) <= 1
 0 <= X(9,10) <= 1
 0 <= X(9,11) <= 1
 0 <= X(9,12) <= 1
 0 <= X(9,13) <= 1
 0 <= X(10,0) <= 1
 0 <= X(10,1) <= 1
 0 <= X(10,2) <= 1
 0 <= X(10,3) <= 1
 0 <= X(10,4) <= 1
 0 <= X(10,5) <= 1
 0 <= X(10,6) <= 1
 0 <= X(10,7) <= 1
 0 <= X(10,8) <= 1
 0 <= X(10,9) <= 1
 0 <= X(10,10) <= 1
 0 <= X(10,11) <= 1
 0 <= X(10,12) <= 1
 0 <= X(10,13) <= 1
 0 <= X(11,0) <= 1
 0 <= X(11,1) <= 1
 0 <= X(11,2) <= 1
 0 <= X(11,3) <= 1
 0 <= X(11,4) <= 1
 0 <= X(11,5) <= 1
 0 <= X(11,6) <= 1
 0 <= X(11,7) <= 1
 0 <= X(11,8) <= 1
 0 <= X(11,9) <= 1
 0 <= X(11,10) <= 1
 0 <= X(11,11) <= 1
 0 <= X(11,12) <= 1
 0 <= X(11,13) <= 1
 0 <= X(12,0) <= 1
 0 <= X(12,1) <= 1
 0 <= X(12,2) <= 1
 0 <= X(12,3) <= 1
 0 <= X(12,4) <= 1
 0 <= X(12,5) <= 1
 0 <= X(12,6) <= 1
 0 <= X(12,7) <= 1
 0 <= X(12,8) <= 1
 0 <= X(12,9) <= 1
 0 <= X(12,10) <= 1
 0 <= X(12,11) <= 1
 0 <= X(12,12) <= 1
 0 <= X(12,13) <= 1
 0 <= X(13,0) <= 1
 0 <= X(13,1) <= 1
 0 <= X(13,2) <= 1
 0 <= X(13,3) <= 1
 0 <= X(13,4) <= 1
 0 <= X(13,5) <= 1
 0 <= X(13,6) <= 1
 0 <= X(13,7) <= 1
 0 <= X(13,8) <= 1
 0 <= X(13,9) <= 1
 0 <= X(13,10) <= 1
 0 <= X(13,11) <= 1
 0 <= X(13,12) <= 1
 0 <= X(13,13) <= 1
Binaries
 X(0,0)  X(0,1)  X(0,2)  X(0,3)  X(0,4)  X(0,5)  X(0,6)  X(0,7)  X(0,8) 
 X(0,9)  X(0,10)  X(0,11)  X(0,12)  X(0,13)  X(1,0)  X(1,1)  X(1,2)  X(1,3) 
 X(1,4)  X(1,5)  X(1,6)  X(1,7)  X(1,8)  X(1,9)  X(1,10)  X(1,11)  X(1,12) 
 X(1,13)  X(2,0)  X(2,1)  X(2,2)  X(2,3)  X(2,4)  X(2,5)  X(2,6)  X(2,7) 
 X(2,8)  X(2,9)  X(2,10)  X(2,11)  X(2,12)  X(2,13)  X(3,0)  X(3,1)  X(3,2) 
 X(3,3)  X(3,4)  X(3,5)  X(3,6)  X(3,7)  X(3,8)  X(3,9)  X(3,10)  X(3,11) 
 X(3,12)  X(3,13)  X(4,0)  X(4,1)  X(4,2)  X(4,3)  X(4,4)  X(4,5)  X(4,6) 
 X(4,7)  X(4,8)  X(4,9)  X(4,10)  X(4,11)  X(4,12)  X(4,13)  X(5,0)  X(5,1) 
 X(5,2)  X(5,3)  X(5,4)  X(5,5)  X(5,6)  X(5,7)  X(5,8)  X(5,9)  X(5,10) 
 X(5,11)  X(5,12)  X(5,13)  X(6,0)  X(6,1)  X(6,2)  X(6,3)  X(6,4)  X(6,5) 
 X(6,6)  X(6,7)  X(6,8)  X(6,9)  X(6,10)  X(6,11)  X(6,12)  X(6,13)  X(7,0) 
 X(7,1)  X(7,2)  X(7,3)  X(7,4)  X(7,5)  X(7,6)  X(7,7)  X(7,8)  X(7,9) 
 X(7,10)  X(7,11)  X(7,12)  X(7,13)  X(8,0)  X(8,1)  X(8,2)  X(8,3)  X(8,4) 
 X(8,5)  X(8,6)  X(8,7)  X(8,8)  X(8,9)  X(8,10)  X(8,11)  X(8,12)  X(8,13) 
 X(9,0)  X(9,1)  X(9,2)  X(9,3)  X(9,4)  X(9,5)  X(9,6)  X(9,7)  X(9,8) 
 X(9,9)  X(9,10)  X(9,11)  X(9,12)  X(9,13)  X(10,0)  X(10,1)  X(10,2) 
 X(10,3)  X(10,4)  X(10,5)  X(10,6)  X(10,7)  X(10,8)  X(10,9)  X(10,10) 
 X(10,11)  X(10,12)  X(10,13)  X(11,0)  X(11,1)  X(11,2)  X(11,3)  X(11,4) 
 X(11,5)  X(11,6)  X(11,7)  X(11,8)  X(11,9)  X(11,10)  X(11,11)  X(11,12) 
 X(11,13)  X(12,0)  X(12,1)  X(12,2)  X(12,3)  X(12,4)  X(12,5)  X(12,6) 
 X(12,7)  X(12,8)  X(12,9)  X(12,10)  X(12,11)  X(12,12)  X(12,13)  X(13,0) 
 X(13,1)  X(13,2)  X(13,3)  X(13,4)  X(13,5)  X(13,6)  X(13,7)  X(13,8) 
 X(13,9)  X(13,10)  X(13,11)  X(13,12)  X(13,13) 
End
